74
cholesterol
C      3.706200    0.203852   -2.719050
C      2.762063    0.900959   -1.723417
C      3.555373    1.692024   -0.660378
C      4.275847    0.989048    0.493363
C      5.430185    0.074002    0.080554
C      6.331692   -0.337101    1.261794
C      7.527241   -1.142212    0.746479
C      5.576305   -1.150493    2.314351
C      1.610808   -0.058293   -1.326479
C      1.965789   -1.368317   -0.583752
C      0.661828   -1.839988    0.093067
C     -0.404153   -0.886507   -0.441498
C      0.347403    0.460143   -0.580047
C     -0.546985    1.398436   -1.403878
C     -1.927105    1.584477   -0.749026
C     -2.655677    0.250984   -0.425389
C     -1.739169   -0.776209    0.302192
C     -2.434337   -2.144407    0.377939
C     -3.879552   -2.058470    0.755304
C     -4.604911   -0.925456    0.757846
C     -4.032355    0.434810    0.331114
C     -5.035970    1.124674   -0.640619
C     -6.483162    1.136736   -0.149636
C     -6.972657   -0.272249    0.171422
C     -6.057067   -0.954062    1.187984
O     -8.293394   -0.203459    0.705076
C     -3.864853    1.305918    1.599203
C      0.666010    1.105818    0.786050
H      4.139017   -0.712853   -2.314422
H      4.523181    0.866601   -3.023190
H      3.161162   -0.073281   -3.628800
H      2.275178    1.688128   -2.319601
H      2.886549    2.438813   -0.222011
H      4.304929    2.299338   -1.188217
H      4.683817    1.778419    1.139124
H      3.561559    0.448361    1.115370
H      5.037373   -0.832692   -0.388631
H      6.043616    0.588801   -0.669169
H      6.720233    0.569847    1.741854
H      8.199105   -1.411497    1.568444
H      7.202717   -2.066890    0.257066
H      8.105596   -0.559566    0.021742
H      6.253740   -1.479879    3.109772
H      4.787664   -0.556760    2.786531
H      5.115607   -2.040778    1.872729
H      1.232904   -0.400373   -2.306331
H      2.324329   -2.124208   -1.291605
H      2.739256   -1.245471    0.173149
H      0.751023   -1.771415    1.182990
H      0.440466   -2.882759   -0.156384
H     -0.651325   -1.247266   -1.454663
H     -0.691371    0.995609   -2.414595
H     -0.066338    2.376298   -1.527133
H     -2.542676    2.185722   -1.427485
H     -1.799208    2.183048    0.157535
H     -2.887527   -0.197022   -1.405526
H     -1.557753   -0.444171    1.330325
H     -1.915023   -2.769416    1.114500
H     -2.368052   -2.666983   -0.584456
H     -4.343141   -2.998346    1.049826
H     -4.731596    2.160661   -0.830887
H     -5.015529    0.613577   -1.612779
H     -7.128639    1.583579   -0.915967
H     -6.588059    1.783357    0.730145
H     -7.015015   -0.872266   -0.745903
H     -6.410007   -1.981570    1.344940
H     -6.160327   -0.469158    2.166941
H     -8.854541    0.228637    0.038601
H     -4.781500    1.353714    2.196296
H     -3.079973    0.920202    2.257351
H     -3.613875    2.340927    1.346894
H      1.061952    2.116201    0.662822
H     -0.219151    1.215269    1.418374
H      1.384253    0.524854    1.368159
